NAME: random98
TYPE: TSP
DIMENSION: 98
EDGE_WEIGHT_TYPE: EXPLICIT
EDGE_WEIGHT_FORMAT: FULL_MATRIX
EDGE_WEIGHT_SECTION
0 123 123 123 123 123 34 123 123 26 27 28 123 123 15 9 21 123 123 123 123 123 123 123 123 11 123 123 123 123 123 123 123 13 123 123 123 123 123 123 123 15 25 123 123 123 123 33 123 19 123 123 123 123 26 21 123 123 123 123 123 26 33 123 123 123 123 14 123 6 123 123 123 34 123 123 16 31 123 123 18 19 123 123 123 123 123 123 19 123 123 123 25 123 123 123 123 123
123 0 123 123 123 123 123 123 14 123 123 123 123 11 123 123 28 23 34 22 123 123 123 123 123 123 123 123 123 123 123 123 123 123 123 123 123 30 24 123 123 123 123 43 123 123 38 123 123 123 123 21 123 123 123 123 123 123 123 14 21 22 123 123 32 123 123 123 13 123 123 123 16 19 123 31 123 123 123 123 123 123 123 123 23 123 123 123 123 123 123 46 30 123 123 17 123 34
123 123 0 30 16 123 123 123 123 123 26 123 123 123 123 123 123 123 123 123 123 9 123 8 32 123 21 25 123 123 26 123 25 37 19 123 24 123 123 23 31 123 29 123 123 123 123 123 123 32 25 123 123 30 25 123 123 30 37 123 123 123 31 123 123 123 23 37 123 123 123 123 123 123 9 123 123 25 34 19 123 123 123 48 123 123 123 123 123 41 8 123 43 123 123 123 123 123
123 123 30 0 123 3 123 123 123 123 123 123 123 123 123 123 25 123 123 123 123 123 123 23 123 123 12 123 23 123 123 19 10 123 11 7 8 123 123 123 123 123 16 123 123 16 123 123 123 123 123 123 123 123 123 123 7 123 123 123 19 123 123 123 123 123 123 123 28 123 1 123 123 22 23 10 123 11 123 123 24 123 123 123 20 123 123 123 123 123 23 123 18 123 123 123 123 123
123 123 16 123 0 123 123 123 123 123 123 123 123 123 123 123 123 123 123 123 123 9 123 13 16 123 29 39 12 123 9 123 123 123 24 123 24 123 123 123 123 123 123 123 8 19 123 123 123 123 123 123 123 123 123 123 123 14 123 123 123 123 123 123 123 123 123 123 123 123 123 123 123 123 12 123 123 123 123 3 123 123 17 123 123 123 123 123 123 123 12 123 123 123 123 123 123 123
123 123 123 3 123 0 123 123 123 123 123 123 123 123 123 123 123 123 21 123 123 123 123 123 123 123 123 123 123 123 123 17 13 123 13 5 9 123 123 123 123 123 123 123 123 16 123 123 123 123 123 123 123 123 123 123 5 123 123 123 17 123 123 123 123 123 123 123 26 123 2 123 123 20 25 7 123 14 123 123 123 123 123 123 17 22 19 123 123 123 123 123 18 123 123 123 21 123
34 123 123 123 123 123 0 123 123 15 25 40 123 123 123 28 123 123 123 123 43 123 123 123 123 123 123 33 123 123 123 123 123 31 123 123 123 123 123 25 17 123 123 123 123 123 123 4 19 32 24 123 123 20 32 22 123 123 21 123 123 123 16 49 123 123 25 28 123 39 123 123 123 123 123 123 123 123 23 123 123 32 123 19 123 123 123 123 123 21 123 123 123 123 123 123 123 123
123 123 123 123 123 123 123 0 123 56 123 33 123 123 34 123 123 123 123 37 31 123 123 123 123 123 123 123 123 123 123 123 123 123 123 123 123 123 123 123 123 29 123 16 123 123 20 123 123 123 123 57 123 123 123 123 123 123 123 123 123 45 123 26 29 28 123 123 123 38 123 32 42 123 123 123 28 123 123 123 123 38 123 90 123 123 123 123 28 123 123 123 123 123 123 123 123 28
123 14 123 123 123 123 123 123 0 123 123 123 123 24 123 123 14 123 123 15 123 123 123 123 123 123 123 123 123 123 123 123 123 123 123 123 123 41 27 123 123 32 32 39 123 123 31 123 123 123 123 32 123 123 123 123 25 123 123 28 12 9 123 123 32 123 123 123 6 33 123 123 16 9 123 25 123 123 123 123 19 123 123 123 21 123 123 123 28 123 123 123 17 123 123 25 123 24
26 123 123 123 123 123 15 56 123 0 31 25 123 123 23 18 123 123 123 123 28 123 123 123 123 21 123 123 123 123 123 123 123 30 123 123 123 123 123 37 30 123 123 123 123 123 123 11 34 33 31 123 123 123 123 8 123 123 123 123 123 123 27 34 123 29 123 27 123 29 123 25 123 123 123 123 35 123 123 123 43 18 123 34 123 123 123 123 123 36 123 123 123 123 123 123 123 123
27 123 26 123 123 123 25 123 123 31 0 123 123 123 123 28 123 123 123 123 123 123 123 28 123 123 20 27 123 123 123 123 123 16 123 123 123 123 123 15 16 123 17 123 123 123 123 27 32 12 4 123 123 18 8 123 123 123 123 123 123 123 11 123 123 123 4 13 123 123 123 123 123 123 123 123 123 20 123 123 30 123 123 123 123 123 123 123 123 123 123 123 123 123 123 123 123 123
28 123 123 123 123 123 40 33 123 25 123 0 123 123 13 22 123 123 123 123 3 123 123 123 123 17 123 123 123 123 123 123 123 123 123 123 123 123 123 123 123 123 123 123 123 123 37 37 123 123 123 123 123 123 123 19 123 123 123 123 123 123 123 9 123 6 123 39 123 25 123 11 123 123 123 123 22 123 123 123 123 10 123 59 123 123 123 123 123 123 123 123 123 123 123 123 123 123
123 123 123 123 123 123 123 123 123 123 123 123 0 123 123 123 123 123 36 123 123 123 12 123 21 123 123 123 123 24 24 123 123 123 123 123 123 56 46 123 123 123 123 123 26 29 123 123 123 123 123 123 8 123 123 123 123 18 123 80 123 123 123 123 123 123 123 123 123 123 123 123 123 123 123 123 123 123 123 123 123 123 22 123 48 28 123 25 123 123 123 29 123 12 7 56 23 123
123 11 123 123 123 123 123 123 24 123 123 123 123 0 123 123 123 12 123 27 123 123 123 123 123 123 123 123 123 123 123 123 123 123 123 123 123 32 33 123 123 123 123 42 123 123 40 123 123 123 123 10 123 123 123 123 123 123 123 4 123 31 123 123 30 123 123 123 24 123 123 123 18 30 123 123 123 123 123 123 123 123 123 123 33 123 123 123 123 123 123 123 123 123 123 24 123 123
15 123 123 123 123 123 123 34 123 23 123 13 123 123 0 11 34 123 123 123 14 123 123 123 123 5 123 123 123 123 123 123 123 123 123 123 123 123 123 123 123 15 123 123 123 123 31 123 123 123 123 123 123 123 123 16 123 123 123 123 123 123 123 19 123 11 123 27 123 12 123 2 123 123 123 123 13 123 123 123 32 7 123 123 123 123 123 123 20 123 123 123 123 123 123 123 123 123
9 123 123 123 123 123 28 123 123 18 28 22 123 123 11 0 30 123 123 123 24 123 123 123 123 6 123 123 123 123 123 123 123 18 123 123 123 123 123 123 36 19 31 123 123 123 123 26 123 23 123 123 123 123 123 12 123 123 123 123 123 123 31 123 123 22 123 17 123 11 123 13 123 123 123 123 19 123 123 123 27 12 123 47 123 123 123 123 24 123 123 123 34 123 123 123 123 123
21 28 123 25 123 123 123 123 14 123 123 123 123 123 34 30 0 123 123 20 123 123 123 123 123 32 27 123 123 123 123 123 23 21 123 123 123 123 123 123 123 24 20 123 123 123 32 123 123 23 123 123 123 123 123 123 22 123 123 123 15 9 123 123 39 123 123 24 17 22 123 123 27 13 123 24 26 23 123 123 4 123 123 123 26 123 123 123 23 123 123 123 7 123 123 36 123 22
123 23 123 123 123 123 123 123 123 123 123 123 123 12 123 123 123 0 123 123 123 123 123 123 123 123 123 123 123 123 123 123 123 123 123 123 123 32 40 123 123 123 123 123 123 123 123 123 123 123 123 10 123 123 123 123 123 123 123 9 123 123 123 123 37 123 123 123 35 123 123 123 29 123 123 123 123 123 123 123 123 123 123 123 43 123 123 123 123 123 123 57 123 123 123 30 123 123
123 34 123 123 123 21 123 123 123 123 123 123 36 123 123 123 123 123 0 123 123 123 123 123 123 123 123 123 123 13 123 12 123 123 123 19 123 27 10 123 123 123 123 123 123 23 123 123 123 123 123 123 28 123 123 123 18 123 123 44 23 123 123 123 123 123 123 123 28 123 123 123 123 26 123 16 123 123 123 123 123 123 123 123 13 9 4 13 123 123 123 15 32 123 35 20 16 123
123 22 123 123 123 123 123 37 15 123 123 123 123 27 123 123 20 123 123 0 123 123 123 123 123 123 123 123 123 123 123 123 123 123 123 123 123 123 123 123 123 23 123 25 123 123 17 123 123 123 123 31 123 123 123 123 123 123 123 31 123 11 123 123 19 123 123 123 20 28 123 123 10 23 123 123 25 123 123 123 123 123 123 123 123 123 123 123 18 123 123 123 26 123 123 38 123 12
123 123 123 123 123 123 43 31 123 28 123 3 123 123 14 24 123 123 123 123 0 123 123 123 123 123 123 123 123 123 123 123 123 123 123 123 123 123 123 123 123 123 123 123 123 123 36 39 62 123 123 123 123 123 123 21 123 123 123 123 123 123 123 6 123 5 123 41 123 123 123 13 123 123 123 123 23 123 123 123 123 12 123 62 123 123 123 123 123 123 123 123 123 123 123 123 123 123
123 123 9 123 9 123 123 123 123 123 123 123 123 123 123 123 123 123 123 123 123 0 35 10 23 123 27 30 19 123 17 123 31 123 23 123 26 123 123 32 123 123 35 123 16 123 123 123 123 123 34 123 123 38 33 123 123 23 123 123 123 123 123 123 123 123 32 123 123 123 123 123 123 123 10 123 123 123 41 11 123 123 25 123 123 123 123 123 123 48 10 123 123 32 33 123 123 123
123 123 123 123 123 123 123 123 123 123 123 123 12 123 123 123 123 123 123 123 123 35 0 123 13 123 123 123 123 123 18 123 123 123 123 123 123 123 123 123 123 123 123 123 25 123 123 123 123 123 123 123 20 123 123 123 123 13 123 123 123 123 123 123 123 123 123 123 123 123 123 123 123 123 123 123 123 123 123 123 123 123 26 123 123 123 123 123 123 123 123 40 123 3 11 123 123 123
123 123 8 23 13 123 123 123 123 123 28 123 123 123 123 123 123 123 123 123 123 10 123 0 28 123 18 32 16 123 22 123 21 123 13 23 17 123 123 29 123 123 26 123 15 18 123 123 123 31 123 123 123 123 25 123 123 123 123 123 123 123 123 123 123 123 26 123 123 123 24 123 123 123 1 123 123 22 40 15 123 123 123 123 123 123 123 123 123 123 1 123 38 123 123 123 123 123
123 123 32 123 16 123 123 123 123 123 123 123 21 123 123 123 123 123 123 123 123 23 13 28 0 123 44 53 20 123 6 123 123 123 123 123 123 123 123 55 123 123 123 123 17 123 123 123 123 123 123 123 26 123 123 123 123 6 123 123 123 123 123 123 123 123 54 123 123 123 123 123 123 123 123 123 123 123 63 13 123 123 22 123 123 123 123 123 123 123 27 123 123 10 15 123 123 123
11 123 123 123 123 123 123 123 123 21 123 17 123 123 5 6 32 123 123 123 123 123 123 123 123 0 123 123 123 123 123 123 123 23 123 123 123 123 123 123 123 15 123 123 123 123 123 123 123 123 123 123 123 123 123 14 123 123 123 123 123 123 123 123 123 16 123 23 123 10 123 7 123 123 123 123 14 123 123 123 29 8 123 123 123 123 123 123 21 123 123 123 123 123 123 123 123 123
123 123 21 12 29 123 123 123 123 123 20 123 123 123 123 123 27 123 123 123 123 27 123 18 44 123 0 38 123 123 123 123 4 21 7 123 12 123 123 30 123 123 9 123 123 21 123 123 123 16 22 123 123 123 12 123 19 123 123 123 123 123 123 123 123 123 20 23 123 123 12 123 123 123 18 123 123 4 123 123 24 123 123 123 123 123 123 123 123 123 18 123 21 123 123 123 123 123
123 123 25 123 39 123 33 123 123 123 27 123 123 123 123 123 123 123 123 123 123 30 123 32 53 123 38 0 123 123 47 123 123 123 39 123 123 123 123 12 17 123 123 123 45 123 123 37 22 123 23 123 123 14 33 123 123 53 15 123 123 123 21 123 123 123 23 123 123 123 123 123 123 123 33 123 123 123 11 42 123 123 123 25 123 123 123 123 123 19 33 123 123 62 123 123 123 123
123 123 123 23 12 123 123 123 123 123 123 123 123 123 123 123 123 123 123 123 123 19 123 16 20 123 123 123 0 25 16 18 123 123 19 19 16 123 123 123 123 123 123 123 4 8 123 123 123 123 123 123 24 123 123 123 123 15 123 123 123 123 123 123 123 123 123 123 123 123 23 123 123 123 15 123 123 123 123 12 123 123 5 123 123 23 123 123 123 123 15 123 123 23 19 123 16 123
123 123 123 123 123 123 123 123 123 123 123 123 24 123 123 123 123 123 13 123 123 123 123 123 123 123 123 123 25 0 123 11 123 123 123 23 123 34 23 123 123 123 123 123 123 21 123 123 123 123 123 123 15 123 123 123 123 32 123 123 123 123 123 123 123 123 123 123 123 123 123 123 123 123 123 25 123 123 123 123 123 123 20 123 123 6 11 3 123 123 123 9 123 123 24 123 9 123
123 123 26 123 9 123 123 123 123 123 123 123 24 123 123 123 123 123 123 123 123 17 18 22 6 123 123 47 16 123 0 123 123 123 123 123 123 123 123 49 123 123 123 123 12 24 123 123 123 123 123 123 28 123 123 123 123 6 123 123 123 123 123 123 123 123 123 123 123 123 123 123 123 123 21 123 123 123 123 7 123 123 18 123 123 123 123 123 123 123 21 123 123 15 18 123 123 123
123 123 123 19 123 17 123 123 123 123 123 123 123 123 123 123 123 123 12 123 123 123 123 123 123 123 123 123 18 11 123 0 123 123 24 12 17 123 22 123 123 123 123 123 22 12 123 123 123 123 123 123 22 123 123 123 18 123 123 123 28 123 123 123 123 123 123 123 123 123 18 123 123 123 29 16 123 123 123 123 123 123 14 123 21 6 8 13 123 123 123 19 123 123 26 123 5 123
123 123 25 10 123 13 123 123 123 123 123 123 123 123 123 123 23 123 123 123 123 31 123 21 123 123 4 123 123 123 123 123 0 19 9 16 13 123 123 123 123 123 6 123 123 22 123 123 123 15 123 123 123 123 13 123 16 123 123 123 24 123 123 123 123 123 123 123 123 123 11 123 123 26 22 19 123 1 123 123 21 123 123 123 123 123 123 123 123 123 22 123 17 123 123 123 123 123
13 123 37 123 123 123 31 123 123 30 16 123 123 123 123 18 21 123 123 123 123 123 123 123 123 23 21 123 123 123 123 123 19 0 123 123 123 123 123 123 123 123 13 123 123 123 123 123 123 6 19 123 123 123 12 28 123 123 123 123 123 123 24 123 123 123 19 4 123 19 123 123 123 31 123 123 123 18 123 123 16 123 123 123 123 123 123 123 31 123 123 123 20 123 123 123 123 123
123 123 19 11 24 13 123 123 123 123 123 123 123 123 123 123 123 123 123 123 123 23 123 13 123 123 7 39 19 123 123 24 9 123 0 13 7 123 123 123 123 123 15 123 21 15 123 123 123 123 123 123 123 123 18 123 18 123 123 123 29 123 123 123 123 123 25 123 123 123 11 123 123 123 13 123 123 10 123 123 123 123 22 123 123 123 123 123 123 123 13 123 25 123 123 123 123 123
123 123 123 7 123 5 123 123 123 123 123 123 123 123 123 123 123 123 19 123 123 123 123 23 123 123 123 123 19 23 123 12 16 123 13 0 6 123 123 123 123 123 123 123 23 11 123 123 123 123 123 123 32 123 123 123 9 123 123 123 22 123 123 123 123 123 123 123 123 123 6 123 123 123 23 10 123 123 123 123 123 123 18 123 19 18 16 123 123 123 123 123 23 123 123 123 16 123
123 123 24 8 24 9 123 123 123 123 123 123 123 123 123 123 123 123 123 123 123 26 123 17 123 123 12 123 16 123 123 17 13 123 7 6 0 123 123 123 123 123 123 123 19 9 123 123 123 123 123 123 123 123 123 123 14 123 123 123 123 123 123 123 123 123 123 123 123 123 8 123 123 123 16 15 123 14 123 123 123 123 17 123 123 23 22 123 123 123 17 123 25 123 123 123 19 123
123 30 123 123 123 123 123 123 41 123 123 123 56 32 123 123 123 32 27 123 123 123 123 123 123 123 123 123 123 34 123 123 123 123 123 123 123 0 20 123 123 123 123 123 123 123 123 123 123 123 123 40 48 123 123 123 123 123 123 30 38 123 123 123 123 123 123 123 35 123 123 123 46 123 123 38 123 123 123 123 123 123 52 123 29 34 123 32 123 123 123 27 123 66 58 16 123 123
123 24 123 123 123 123 123 123 27 123 123 123 46 33 123 123 123 40 10 123 123 123 123 123 123 123 123 123 123 23 123 22 123 123 123 123 123 20 0 123 123 123 123 123 123 123 123 123 123 123 123 43 38 123 123 123 21 123 123 33 20 123 123 123 123 123 123 123 21 123 123 123 123 22 123 18 123 123 123 123 123 123 123 123 10 19 14 22 123 123 123 21 123 123 46 10 123 123
123 123 23 123 123 123 25 123 123 37 15 123 123 123 123 123 123 123 123 123 123 32 123 29 55 123 30 12 123 123 49 123 123 123 123 123 123 123 123 0 8 123 31 123 123 123 123 123 22 27 12 123 123 7 22 123 123 123 14 123 123 123 10 123 123 123 12 28 123 123 123 123 123 123 123 123 123 123 12 123 123 123 123 25 123 123 123 123 123 19 30 123 123 123 123 123 123 123
123 123 31 123 123 123 17 123 123 30 16 123 123 123 123 36 123 123 123 123 123 123 123 123 123 123 123 17 123 123 123 123 123 123 123 123 123 123 123 8 0 123 123 123 123 123 123 21 16 27 13 123 123 4 123 123 123 123 11 123 123 123 6 123 123 123 14 27 123 123 123 123 123 123 123 123 123 123 11 123 123 123 123 19 123 123 123 123 123 15 123 123 123 123 123 123 123 123
15 123 123 123 123 123 123 29 32 123 123 123 123 123 15 19 24 123 123 23 123 123 123 123 123 15 123 123 123 123 123 123 123 123 123 123 123 123 123 123 123 0 123 28 123 123 18 123 123 123 123 123 123 123 123 123 123 123 123 123 123 23 123 123 123 21 123 123 123 10 123 15 123 123 123 123 2 123 123 123 24 21 123 123 123 123 123 123 5 123 123 123 31 123 123 123 123 11
25 123 29 16 123 123 123 123 32 123 17 123 123 123 123 31 20 123 123 123 123 35 123 26 123 123 9 123 123 123 123 123 6 13 15 123 123 123 123 31 123 123 0 123 123 123 123 123 123 9 21 123 123 123 9 123 20 123 123 123 25 123 28 123 123 123 19 15 123 30 123 123 123 26 123 123 123 6 123 123 17 123 123 123 123 123 123 123 39 123 123 123 16 123 123 123 123 123
123 43 123 123 123 123 123 16 39 123 123 123 123 42 123 123 123 123 123 25 123 123 123 123 123 123 123 123 123 123 123 123 123 123 123 123 123 123 123 123 123 28 123 0 123 123 10 123 123 123 123 40 123 123 123 123 123 123 123 45 123 34 123 39 13 37 123 123 123 123 123 38 27 123 123 123 28 123 123 123 123 123 123 123 123 123 123 123 24 123 123 123 123 123 123 123 123 21
123 123 123 123 8 123 123 123 123 123 123 123 26 123 123 123 123 123 123 123 123 16 25 15 17 123 123 45 4 123 12 22 123 123 21 23 19 123 123 123 123 123 123 123 0 12 123 123 123 123 123 123 25 123 123 123 123 12 123 123 123 123 123 123 123 123 123 123 123 123 123 123 123 123 14 123 123 123 123 8 123 123 9 123 123 123 123 123 123 123 14 123 123 21 19 123 20 123
123 123 123 16 19 16 123 123 123 123 123 123 29 123 123 123 123 123 23 123 123 123 123 18 123 123 21 123 8 21 24 12 22 123 15 11 9 123 123 123 123 123 123 123 12 0 123 123 123 123 123 123 25 123 123 123 20 23 123 123 123 123 123 123 123 123 123 123 123 123 16 123 123 123 17 20 123 123 123 20 123 123 8 123 123 18 19 24 123 123 17 123 123 123 24 123 12 123
123 38 123 123 123 123 123 20 31 123 123 37 123 40 31 123 32 123 123 17 36 123 123 123 123 123 123 123 123 123 123 123 123 123 123 123 123 123 123 123 123 18 123 10 123 123 0 123 123 123 123 40 123 123 123 123 123 123 123 123 123 25 123 35 16 32 123 123 123 27 123 30 22 123 123 123 19 123 123 123 123 123 123 123 123 123 123 123 13 123 123 123 123 123 123 123 123 10
33 123 123 123 123 123 4 123 123 11 27 37 123 123 123 26 123 123 123 123 39 123 123 123 123 123 123 37 123 123 123 123 123 123 123 123 123 123 123 123 21 123 123 123 123 123 123 0 23 123 123 123 123 123 123 18 123 123 25 123 123 123 20 45 123 40 123 28 123 123 123 123 123 123 123 123 123 123 123 123 123 123 123 23 123 123 123 123 123 25 123 123 123 123 123 123 123 123
123 123 123 123 123 123 19 123 123 34 32 123 123 123 123 123 123 123 123 123 62 123 123 123 123 123 123 22 123 123 123 123 123 123 123 123 123 123 123 22 16 123 123 123 123 123 123 23 0 123 29 123 123 15 123 123 123 123 7 123 123 123 21 123 123 123 123 41 123 123 123 123 123 123 123 123 123 123 11 123 123 123 123 3 123 123 123 123 123 3 123 123 123 123 123 123 123 123
19 123 32 123 123 123 32 123 123 33 12 123 123 123 123 23 23 123 123 123 123 123 123 31 123 123 16 123 123 123 123 123 15 6 123 123 123 123 123 27 27 123 9 123 123 123 123 123 123 0 15 123 123 123 7 123 123 123 123 123 123 123 22 123 123 123 15 7 123 25 123 123 123 123 123 123 123 14 123 123 19 123 123 123 123 123 123 123 123 123 123 123 21 123 123 123 123 123
123 123 25 123 123 123 24 123 123 31 4 123 123 123 123 123 123 123 123 123 123 34 123 123 123 123 22 23 123 123 123 123 123 19 123 123 123 123 123 12 13 123 21 123 123 123 123 123 29 15 0 123 123 15 12 123 123 123 23 123 123 123 8 123 123 123 2 17 123 123 123 123 123 123 123 123 123 123 22 123 123 123 123 123 123 123 123 123 123 123 123 123 123 123 123 123 123 123
123 21 123 123 123 123 123 57 32 123 123 123 123 10 123 123 123 10 123 31 123 123 123 123 123 123 123 123 123 123 123 123 123 123 123 123 123 40 43 123 123 123 123 40 123 123 40 123 123 123 123 0 123 123 123 123 123 123 123 10 123 37 123 123 27 123 123 123 33 123 123 123 21 123 123 123 55 123 123 123 123 123 123 123 123 123 123 123 123 123 123 123 123 123 123 33 123 42
123 123 123 123 123 123 123 123 123 123 123 123 8 123 123 123 123 123 28 123 123 123 20 123 26 123 123 123 24 15 28 22 123 123 123 32 123 48 38 123 123 123 123 123 25 25 123 123 123 123 123 123 0 123 123 123 123 22 123 123 123 123 123 123 123 123 123 123 123 123 123 123 123 123 39 123 123 123 123 123 123 123 19 123 41 20 26 16 123 123 123 20 123 19 11 47 16 123
123 123 30 123 123 123 20 123 123 123 18 123 123 123 123 123 123 123 123 123 123 38 123 123 123 123 123 14 123 123 123 123 123 123 123 123 123 123 123 7 4 123 123 123 123 123 123 123 15 123 15 123 123 0 123 123 123 123 9 123 123 123 9 123 123 123 16 30 123 123 123 123 123 123 123 123 123 123 8 123 123 123 123 18 123 123 123 123 123 13 123 123 123 123 123 123 123 123
26 123 25 123 123 123 32 123 123 123 8 123 123 123 123 123 123 123 123 123 123 33 123 25 123 123 12 33 123 123 123 123 13 12 18 123 123 123 123 22 123 123 9 123 123 123 123 123 123 7 12 123 123 123 0 123 123 123 123 123 123 123 19 123 123 123 10 12 123 123 123 123 123 123 26 123 123 12 34 123 24 123 123 123 123 123 123 123 123 123 26 123 24 123 123 123 123 123
21 123 123 123 123 123 22 123 123 8 123 19 123 123 16 12 123 123 123 123 21 123 123 123 123 14 123 123 123 123 123 123 123 28 123 123 123 123 123 123 123 123 123 123 123 123 123 18 123 123 123 123 123 123 123 0 123 123 123 123 123 123 31 27 123 22 123 25 123 23 123 17 123 123 123 123 28 123 123 123 123 11 123 41 123 123 123 123 123 123 123 123 123 123 123 123 123 123
123 123 123 7 123 5 123 123 25 123 123 123 123 123 123 123 22 123 18 123 123 123 123 123 123 123 19 123 123 123 123 18 16 123 18 9 14 123 21 123 123 123 20 123 123 20 123 123 123 123 123 123 123 123 123 123 0 123 123 123 13 123 123 123 123 123 123 123 21 123 7 123 123 16 123 3 123 17 123 123 23 123 123 123 12 123 17 123 123 123 123 123 16 123 123 28 123 123
123 123 30 123 14 123 123 123 123 123 123 123 18 123 123 123 123 123 123 123 123 23 13 123 6 123 123 53 15 32 6 123 123 123 123 123 123 123 123 123 123 123 123 123 12 23 123 123 123 123 123 123 22 123 123 123 123 0 123 123 123 123 123 123 123 123 123 123 123 123 123 123 123 123 25 123 123 123 123 11 123 123 16 123 123 123 123 123 123 123 123 40 123 10 12 123 25 123
123 123 37 123 123 123 21 123 123 123 123 123 123 123 123 123 123 123 123 123 123 123 123 123 123 123 123 15 123 123 123 123 123 123 123 123 123 123 123 14 11 123 123 123 123 123 123 25 7 123 23 123 123 9 123 123 123 123 0 123 123 123 17 123 123 123 123 38 123 123 123 123 123 123 123 123 123 123 4 123 123 123 123 11 123 123 123 123 123 5 123 123 123 123 123 123 123 123
123 14 123 123 123 123 123 123 28 123 123 123 80 4 123 123 123 9 44 31 123 123 123 123 123 123 123 123 123 123 123 123 123 123 123 123 123 30 33 123 123 123 123 45 123 123 123 123 123 123 123 10 123 123 123 123 123 123 123 0 35 123 123 123 33 123 123 123 27 123 123 123 22 33 123 123 123 123 123 123 123 123 123 123 35 123 123 123 123 123 123 53 123 123 123 24 123 123
123 21 123 19 123 17 123 123 12 123 123 123 123 123 123 123 15 123 23 123 123 123 123 123 123 123 123 123 123 123 123 28 24 123 29 22 123 38 20 123 123 123 25 123 123 123 123 123 123 123 123 123 123 123 123 123 13 123 123 35 0 17 123 123 123 123 123 123 9 37 19 123 28 3 123 12 123 25 123 123 18 123 123 123 11 30 24 123 123 123 123 38 12 123 123 22 123 123
26 22 123 123 123 123 123 45 9 123 123 123 123 31 123 123 9 123 123 11 123 123 123 123 123 123 123 123 123 123 123 123 123 123 123 123 123 123 123 123 123 23 123 34 123 123 25 123 123 123 123 37 123 123 123 123 123 123 123 123 17 0 123 123 30 123 123 123 14 24 123 123 18 14 123 123 25 123 123 123 13 123 123 123 123 123 123 123 20 123 123 123 15 123 123 123 123 16
33 123 31 123 123 123 16 123 123 27 11 123 123 123 123 31 123 123 123 123 123 123 123 123 123 123 123 21 123 123 123 123 123 24 123 123 123 123 123 10 6 123 28 123 123 123 123 20 21 22 8 123 123 9 19 31 123 123 17 123 123 123 0 123 123 123 10 21 123 123 123 123 123 123 123 123 123 123 17 123 123 123 123 24 123 123 123 123 123 20 123 123 123 123 123 123 123 123
123 123 123 123 123 123 49 26 123 34 123 9 123 123 19 123 123 123 123 123 6 123 123 123 123 123 123 123 123 123 123 123 123 123 123 123 123 123 123 123 123 123 123 39 123 123 35 45 123 123 123 123 123 123 123 27 123 123 123 123 123 123 123 0 123 7 123 123 123 123 123 17 123 123 123 123 24 123 123 123 123 18 123 68 123 123 123 123 30 123 123 123 123 123 123 123 123 123
123 32 123 123 123 123 123 29 32 123 123 123 123 30 123 123 39 37 123 19 123 123 123 123 123 123 123 123 123 123 123 123 123 123 123 123 123 123 123 123 123 123 123 13 123 123 16 123 123 123 123 27 123 123 123 123 123 123 123 33 123 30 123 123 0 47 123 123 37 123 123 123 17 123 123 123 34 123 123 123 123 123 123 123 123 123 123 123 27 123 123 123 123 123 123 123 123 22
123 123 123 123 123 123 123 28 123 29 123 6 123 123 11 22 123 123 123 123 5 123 123 123 123 16 123 123 123 123 123 123 123 123 123 123 123 123 123 123 123 21 123 37 123 123 32 40 123 123 123 123 123 123 123 22 123 123 123 123 123 123 123 7 47 0 123 123 123 22 123 9 123 123 123 123 18 123 123 123 123 12 123 63 123 123 123 123 25 123 123 123 123 123 123 123 123 30
123 123 23 123 123 123 25 123 123 123 4 123 123 123 123 123 123 123 123 123 123 32 123 26 54 123 20 23 123 123 123 123 123 19 25 123 123 123 123 12 14 123 19 123 123 123 123 123 123 15 2 123 123 16 10 123 123 123 123 123 123 123 10 123 123 123 0 17 123 123 123 123 123 123 123 123 123 22 23 123 123 123 123 123 123 123 123 123 123 29 123 123 123 123 123 123 123 123
14 123 37 123 123 123 28 123 123 27 13 39 123 123 27 17 24 123 123 123 41 123 123 123 123 23 23 123 123 123 123 123 123 4 123 123 123 123 123 28 27 123 15 123 123 123 123 28 41 7 17 123 123 30 12 25 123 123 38 123 123 123 21 123 123 123 17 0 123 20 123 123 123 123 123 123 123 123 123 123 20 29 123 43 123 123 123 123 123 123 123 123 24 123 123 123 123 123
123 13 123 28 123 26 123 123 6 123 123 123 123 24 123 123 17 35 28 20 123 123 123 123 123 123 123 123 123 123 123 123 123 123 123 123 123 35 21 123 123 123 123 123 123 123 123 123 123 123 123 33 123 123 123 123 21 123 123 27 9 14 123 123 37 123 123 123 0 123 123 123 20 7 123 21 123 123 123 123 21 123 123 123 15 123 30 123 34 123 123 42 17 123 123 20 123 123
6 123 123 123 123 123 39 38 33 29 123 25 123 123 12 11 22 123 123 28 123 123 123 123 123 10 123 123 123 123 123 123 123 19 123 123 123 123 123 123 123 10 30 123 123 123 27 123 123 25 123 123 123 123 123 23 123 123 123 123 37 24 123 123 123 22 123 20 123 0 123 14 123 35 123 123 10 35 123 123 20 18 123 123 123 123 123 123 14 123 123 123 27 123 123 123 123 19
123 123 123 1 123 2 123 123 123 123 123 123 123 123 123 123 123 123 123 123 123 123 123 24 123 123 12 123 23 123 123 18 11 123 11 6 8 123 123 123 123 123 123 123 123 16 123 123 123 123 123 123 123 123 123 123 7 123 123 123 19 123 123 123 123 123 123 123 123 123 0 123 123 123 23 9 123 123 123 123 123 123 123 123 123 123 21 123 123 123 123 123 18 123 123 123 22 123
123 123 123 123 123 123 123 32 123 25 123 11 123 123 2 13 123 123 123 123 13 123 123 123 123 7 123 123 123 123 123 123 123 123 123 123 123 123 123 123 123 15 123 38 123 123 30 123 123 123 123 123 123 123 123 17 123 123 123 123 123 123 123 17 123 9 123 123 123 14 123 0 123 123 123 123 13 123 123 123 123 7 123 58 123 123 123 123 20 123 123 123 123 123 123 123 123 123
123 16 123 123 123 123 123 42 16 123 123 123 123 18 123 123 27 29 123 10 123 123 123 123 123 123 123 123 123 123 123 123 123 123 123 123 123 46 123 123 123 123 123 27 123 123 22 123 123 123 123 21 123 123 123 123 123 123 123 22 28 18 123 123 17 123 123 123 20 123 123 123 0 25 123 123 123 123 123 123 123 123 123 123 35 123 123 123 27 123 123 123 123 123 123 33 123 21
34 19 123 22 123 20 123 123 9 123 123 123 123 30 123 123 13 123 26 23 123 123 123 123 123 123 123 123 123 123 123 123 26 31 123 123 123 123 22 123 123 123 26 123 123 123 123 123 123 123 123 123 123 123 123 123 16 123 123 33 3 14 123 123 123 123 123 123 7 35 123 123 25 0 123 16 123 26 123 123 16 123 123 123 13 123 123 123 33 123 123 123 11 123 123 23 123 31
123 123 9 23 12 25 123 123 123 123 123 123 123 123 123 123 123 123 123 123 123 10 123 1 123 123 18 33 15 123 21 29 22 123 13 23 16 123 123 123 123 123 123 123 14 17 123 123 123 123 123 123 39 123 26 123 123 25 123 123 123 123 123 123 123 123 123 123 123 123 23 123 123 123 0 32 123 22 123 14 123 123 20 123 123 123 123 123 123 123 1 123 38 123 33 123 29 123
123 31 123 10 123 7 123 123 25 123 123 123 123 123 123 123 24 123 16 123 123 123 123 123 123 123 123 123 123 25 123 16 19 123 123 10 15 38 18 123 123 123 123 123 123 20 123 123 123 123 123 123 123 123 123 123 3 123 123 123 12 123 123 123 123 123 123 123 21 123 9 123 123 16 32 0 123 123 123 123 123 123 26 123 10 19 15 27 123 123 123 30 18 123 123 26 21 123
16 123 123 123 123 123 123 28 123 35 123 22 123 123 13 19 26 123 123 25 23 123 123 123 123 14 123 123 123 123 123 123 123 123 123 123 123 123 123 123 123 2 123 28 123 123 19 123 123 123 123 55 123 123 123 28 123 123 123 123 123 25 123 24 34 18 123 123 123 10 123 13 123 123 123 123 0 123 123 123 26 20 123 66 123 123 123 123 7 123 123 123 123 123 123 123 123 13
31 123 25 11 123 14 123 123 123 123 20 123 123 123 123 123 23 123 123 123 123 123 123 22 123 123 4 123 123 123 123 123 1 18 10 123 14 123 123 123 123 123 6 123 123 123 123 123 123 14 123 123 123 123 12 123 17 123 123 123 25 123 123 123 123 123 22 123 123 35 123 123 123 26 22 123 123 0 123 123 20 123 123 123 123 123 123 123 123 123 123 123 17 123 123 123 123 123
123 123 34 123 123 123 23 123 123 123 123 123 123 123 123 123 123 123 123 123 123 41 123 40 63 123 123 11 123 123 123 123 123 123 123 123 123 123 123 12 11 123 123 123 123 123 123 123 11 123 22 123 123 8 34 123 123 123 4 123 123 123 17 123 123 123 23 123 123 123 123 123 123 123 123 123 123 123 0 123 123 123 123 14 123 123 123 123 123 8 123 123 123 123 123 123 123 123
123 123 19 123 3 123 123 123 123 123 123 123 123 123 123 123 123 123 123 123 123 11 123 15 13 123 123 42 12 123 7 123 123 123 123 123 123 123 123 123 123 123 123 123 8 20 123 123 123 123 123 123 123 123 123 123 123 11 123 123 123 123 123 123 123 123 123 123 123 123 123 123 123 123 14 123 123 123 123 0 123 123 17 123 123 123 123 123 123 123 14 123 123 21 22 123 123 123
18 123 123 24 123 123 123 123 19 43 30 123 123 123 32 27 4 123 123 123 123 123 123 123 123 29 24 123 123 123 123 123 21 16 123 123 123 123 123 123 123 24 17 123 123 123 123 123 123 19 123 123 123 123 24 123 23 123 123 123 18 13 123 123 123 123 123 20 21 20 123 123 123 16 123 123 26 20 123 123 0 37 123 123 123 123 123 123 24 123 123 123 7 123 123 123 123 24
19 123 123 123 123 123 32 38 123 18 123 10 123 123 7 12 123 123 123 123 12 123 123 123 123 8 123 123 123 123 123 123 123 123 123 123 123 123 123 123 123 21 123 123 123 123 123 123 123 123 123 123 123 123 123 11 123 123 123 123 123 123 123 18 123 12 123 29 123 18 123 7 123 123 123 123 20 123 123 123 37 0 123 52 123 123 123 123 123 123 123 123 123 123 123 123 123 123
123 123 123 123 17 123 123 123 123 123 123 123 22 123 123 123 123 123 123 123 123 25 26 123 22 123 123 123 5 20 18 14 123 123 22 18 17 52 123 123 123 123 123 123 9 8 123 123 123 123 123 123 19 123 123 123 123 16 123 123 123 123 123 123 123 123 123 123 123 123 123 123 123 123 20 26 123 123 123 17 123 123 0 123 123 18 22 22 123 123 20 29 123 22 17 123 11 123
123 123 48 123 123 123 19 90 123 34 123 59 123 123 123 47 123 123 123 123 62 123 123 123 123 123 123 25 123 123 123 123 123 123 123 123 123 123 123 25 19 123 123 123 123 123 123 23 3 123 123 123 123 18 123 41 123 123 11 123 123 123 24 68 123 63 123 43 123 123 123 58 123 123 123 123 66 123 14 123 123 52 123 0 123 123 123 123 123 6 123 123 123 123 123 123 123 123
123 23 123 20 123 17 123 123 21 123 123 123 48 33 123 123 26 43 13 123 123 123 123 123 123 123 123 123 123 123 123 21 123 123 123 19 123 29 10 123 123 123 123 123 123 123 123 123 123 123 123 123 41 123 123 123 12 123 123 35 11 123 123 123 123 123 123 123 15 123 123 123 35 13 123 10 123 123 123 123 123 123 123 123 0 21 15 26 123 123 123 28 21 123 123 16 123 123
123 123 123 123 123 22 123 123 123 123 123 123 28 123 123 123 123 123 9 123 123 123 123 123 123 123 123 123 23 6 123 6 123 123 123 18 23 34 19 123 123 123 123 123 123 18 123 123 123 123 123 123 20 123 123 123 123 123 123 123 30 123 123 123 123 123 123 123 123 123 123 123 123 123 123 19 123 123 123 123 123 123 18 123 21 0 5 8 123 123 123 13 123 123 27 123 7 123
123 123 123 123 123 19 123 123 123 123 123 123 123 123 123 123 123 123 4 123 123 123 123 123 123 123 123 123 123 11 123 8 123 123 123 16 22 123 14 123 123 123 123 123 123 19 123 123 123 123 123 123 26 123 123 123 17 123 123 123 24 123 123 123 123 123 123 123 30 123 21 123 123 123 123 15 123 123 123 123 123 123 22 123 15 5 0 12 123 123 123 16 123 123 123 24 12 123
123 123 123 123 123 123 123 123 123 123 123 123 25 123 123 123 123 123 13 123 123 123 123 123 123 123 123 123 123 3 123 13 123 123 123 123 123 32 22 123 123 123 123 123 123 24 123 123 123 123 123 123 16 123 123 123 123 123 123 123 123 123 123 123 123 123 123 123 123 123 123 123 123 123 123 27 123 123 123 123 123 123 22 123 26 8 12 0 123 123 123 7 123 34 26 31 12 123
19 123 123 123 123 123 123 28 28 123 123 123 123 123 20 24 23 123 123 18 123 123 123 123 123 21 123 123 123 123 123 123 123 31 123 123 123 123 123 123 123 5 39 24 123 123 13 123 123 123 123 123 123 123 123 123 123 123 123 123 123 20 123 30 27 25 123 123 34 14 123 20 27 33 123 123 7 123 123 123 24 123 123 123 123 123 123 123 0 123 123 123 30 123 123 123 123 6
123 123 41 123 123 123 21 123 123 36 123 123 123 123 123 123 123 123 123 123 123 48 123 123 123 123 123 19 123 123 123 123 123 123 123 123 123 123 123 19 15 123 123 123 123 123 123 25 3 123 123 123 123 13 123 123 123 123 5 123 123 123 20 123 123 123 29 123 123 123 123 123 123 123 123 123 123 123 8 123 123 123 123 6 123 123 123 123 123 0 123 123 123 123 123 123 123 123
123 123 8 23 12 123 123 123 123 123 123 123 123 123 123 123 123 123 123 123 123 10 123 1 27 123 18 33 15 123 21 123 22 123 13 123 17 123 123 30 123 123 123 123 14 17 123 123 123 123 123 123 123 123 26 123 123 123 123 123 123 123 123 123 123 123 123 123 123 123 123 123 123 123 1 123 123 123 123 14 123 123 20 123 123 123 123 123 123 123 0 123 123 123 123 123 123 123
123 46 123 123 123 123 123 123 123 123 123 123 29 123 123 123 123 57 15 123 123 123 40 123 123 123 123 123 123 9 123 19 123 123 123 123 123 27 21 123 123 123 123 123 123 123 123 123 123 123 123 123 20 123 123 123 123 40 123 53 38 123 123 123 123 123 123 123 42 123 123 123 123 123 123 30 123 123 123 123 123 123 29 123 28 13 16 7 123 123 123 0 123 39 31 29 18 123
25 30 43 18 123 18 123 123 17 123 123 123 123 123 123 34 7 123 32 26 123 123 123 38 123 123 21 123 123 123 123 123 17 20 25 23 25 123 123 123 123 31 16 123 123 123 123 123 123 21 123 123 123 123 24 123 16 123 123 123 12 15 123 123 123 123 123 24 17 27 18 123 123 11 38 18 123 17 123 123 7 123 123 123 21 123 123 123 30 123 123 123 0 123 123 34 123 123
123 123 123 123 123 123 123 123 123 123 123 123 12 123 123 123 123 123 123 123 123 32 3 123 10 123 123 62 23 123 15 123 123 123 123 123 123 66 123 123 123 123 123 123 21 123 123 123 123 123 123 123 19 123 123 123 123 10 123 123 123 123 123 123 123 123 123 123 123 123 123 123 123 123 123 123 123 123 123 21 123 123 22 123 123 123 123 34 123 123 123 39 123 0 8 123 29 123
123 123 123 123 123 123 123 123 123 123 123 123 7 123 123 123 123 123 35 123 123 33 11 123 15 123 123 123 19 24 18 26 123 123 123 123 123 58 46 123 123 123 123 123 19 24 123 123 123 123 123 123 11 123 123 123 123 12 123 123 123 123 123 123 123 123 123 123 123 123 123 123 123 123 33 123 123 123 123 22 123 123 17 123 123 27 123 26 123 123 123 31 123 8 0 123 21 123
123 17 123 123 123 123 123 123 25 123 123 123 56 24 123 123 36 30 20 38 123 123 123 123 123 123 123 123 123 123 123 123 123 123 123 123 123 16 10 123 123 123 123 123 123 123 123 123 123 123 123 33 47 123 123 123 28 123 123 24 22 123 123 123 123 123 123 123 20 123 123 123 33 23 123 26 123 123 123 123 123 123 123 123 16 123 24 31 123 123 123 29 34 123 123 0 123 123
123 123 123 123 123 21 123 123 123 123 123 123 23 123 123 123 123 123 16 123 123 123 123 123 123 123 123 123 16 9 123 5 123 123 123 16 19 123 123 123 123 123 123 123 20 12 123 123 123 123 123 123 16 123 123 123 123 25 123 123 123 123 123 123 123 123 123 123 123 123 22 123 123 123 29 21 123 123 123 123 123 123 11 123 123 7 12 12 123 123 123 18 123 29 21 123 0 123
123 34 123 123 123 123 123 28 24 123 123 123 123 123 123 123 22 123 123 12 123 123 123 123 123 123 123 123 123 123 123 123 123 123 123 123 123 123 123 123 123 11 123 21 123 123 10 123 123 123 123 42 123 123 123 123 123 123 123 123 123 16 123 123 22 30 123 123 123 19 123 123 21 31 123 123 13 123 123 123 24 123 123 123 123 123 123 123 6 123 123 123 123 123 123 123 123 0
EOF
